clingo version 5.5.2
Reading from ...nt/beegfs/home/jubruns/encoding/mif.lp ...
Solving...
Answer: 1
move(1,(25,6),(25,7),2) move(1,(25,7),(25,8),12) move(1,(25,8),(25,9),13) move(1,(25,9),(25,10),14) move(1,(25,10),(25,11),15) move(1,(25,11),(26,11),16) move(1,(26,11),(27,11),17) move(1,(27,11),(28,11),18) move(1,(28,11),(29,11),19) move(1,(29,11),(29,12),20) move(1,(29,12),(29,13),21) move(1,(29,13),(28,13),22) move(1,(28,13),(27,13),23) move(1,(27,13),(26,13),24) move(1,(26,13),(25,13),25) move(1,(25,13),(25,14),26) move(1,(25,14),(25,15),27) move(1,(25,15),(25,16),28) move(1,(25,16),(25,17),29) move(1,(25,17),(25,18),35) move(2,(1,8),(2,8),1) move(2,(2,8),(3,8),2) move(2,(3,8),(4,8),3) move(2,(4,8),(4,7),4) move(2,(4,7),(4,6),5) move(2,(4,6),(4,5),6) move(2,(4,5),(5,5),7) move(2,(5,5),(6,5),8) move(2,(6,5),(7,5),9) move(2,(7,5),(8,5),10) move(2,(8,5),(9,5),11) move(2,(9,5),(9,6),12) move(2,(9,6),(9,7),13) move(2,(9,7),(9,8),14) move(2,(9,8),(9,9),15) move(2,(9,9),(9,10),16) move(2,(9,10),(9,11),17) move(2,(9,11),(9,12),18) move(2,(9,12),(9,13),19) move(2,(9,13),(8,13),20) move(2,(8,13),(7,13),21) move(2,(7,13),(7,14),22) move(2,(7,14),(7,15),23) move(2,(7,15),(7,16),24) move(2,(7,16),(7,17),25) move(2,(7,17),(6,17),26) move(2,(6,17),(5,17),27) move(2,(5,17),(4,17),28) move(2,(4,17),(3,17),29) move(2,(3,17),(3,18),30) move(2,(3,18),(3,19),31) move(2,(3,19),(2,19),32) move(2,(2,19),(1,19),33) move(2,(1,19),(1,20),34) move(2,(1,20),(1,21),35)
SATISFIABLE

Models       : 1+
Calls        : 1
Time         : 1.510s (Solving: 0.12s 1st Model: 0.12s Unsat: 0.00s)
CPU Time     : 1.480s

Choices      : 390      (Domain: 390)
Conflicts    : 15       (Analyzed: 15)
Restarts     : 0       
Model-Level  : 30.0    
Problems     : 1        (Average Length: 0.00 Splits: 0)
Lemmas       : 15       (Deleted: 0)
  Binary     : 0        (Ratio:   0.00%)
  Ternary    : 0        (Ratio:   0.00%)
  Conflict   : 15       (Average Length:   16.1 Ratio: 100.00%) 
  Loop       : 0        (Average Length:    0.0 Ratio:   0.00%) 
  Other      : 0        (Average Length:    0.0 Ratio:   0.00%) 
Backjumps    : 15       (Average: 24.00 Max:  29 Sum:    360)
  Executed   : 15       (Average: 24.00 Max:  29 Sum:    360 Ratio: 100.00%)
  Bounded    : 0        (Average:  0.00 Max:   0 Sum:      0 Ratio:   0.00%)

Rules        : 454832   (Original: 413196)
  Choice     : 70      
  Heuristic  : 13093    (Original: 13097)
Atoms        : 259923   (Original: 245635 Auxiliary: 14288)
Bodies       : 270683   (Original: 243363)
  Count      : 106      (Original: 210)
Equivalences : 164910   (Atom=Atom: 74 Body=Body: 77 Other: 164759)
Tight        : Yes
Variables    : 305493   (Eliminated:    0 Frozen: 157064)
Constraints  : 667036   (Binary:  78.6% Ternary:  19.7% Other:   1.7%)

